NAME:   test
TYPE:   STSP
COMMENT:    instancja testowa
DIMENSION:  4
EDGE_WEIGHT_TYPE:   EXPLICIT
EDGE_WEIGHT_FORMAT: FULL_MATRIX
EDGE_WEIGHT_SECTION
0   1   1   8
1   0   4   1
1   4   0   1
8   1   1   0
EOF
